7025.0 418624.0 
6900.0 424506.0 
7139.0 417748.0 
6917.0 421183.0 
7233.0 415867.0 
7157.0 417154.0 
7088.0 418566.0 
7257.0 415558.0 
7223.0 416730.0 
6871.0 425098.0 
6989.0 419187.0 
6907.0 421614.0 
6919.0 419496.0 
7229.0 416501.0 
